; benchmark generated from python API
(set-info :status unknown)
(declare-fun R_E1_V6 () Bool)
(declare-fun W_S1_V6 () Bool)
(declare-fun R_E2_V6 () Bool)
(declare-fun W_S1_V3 () Bool)
(declare-fun W_S1_V1 () Bool)
(declare-fun R_S1_V6 () Bool)
(declare-fun R_S1_V4 () Bool)
(declare-fun R_S1_V5 () Bool)
(declare-fun R_S1_V2 () Bool)
(declare-fun R_S1_V3 () Bool)
(declare-fun R_S1_V1 () Bool)
(declare-fun R_E2_V4 () Bool)
(declare-fun R_E2_V2 () Bool)
(declare-fun R_E1_V5 () Bool)
(declare-fun DISJ_W_S1_R_S1 () Bool)
(declare-fun R_E2_V5 () Bool)
(declare-fun W_S1_V5 () Bool)
(declare-fun W_S1_V4 () Bool)
(declare-fun W_S1_V2 () Bool)
(declare-fun R_E1_V3 () Bool)
(declare-fun R_E1_V1 () Bool)
(declare-fun R_E2_V3 () Bool)
(declare-fun R_E2_V1 () Bool)
(declare-fun DISJ_W_S1_R_E1 () Bool)
(declare-fun DISJ_W_S1_R_E2 () Bool)
(assert
 (let (($x2773 (not (and W_S1_V6 R_E1_V6))))
 (let (($x4753 (not (and W_S1_V6 R_E2_V6))))
 (let (($x5172 (forall ((V2_0 Int) )(forall ((V5_0 Int) )(forall ((V4_0 Int) )(forall ((V6_0 Int) )(forall ((MW_S1_V1 Bool) )(forall ((MW_S1_V3 Bool) )(forall ((MW_S1_V2 Bool) )(forall ((MW_S1_V5 Bool) )(forall ((MW_S1_V4 Bool) )(forall ((MW_S1_V6 Bool) )(forall ((S1_V1_!8171 Int) )(forall ((S1_V1_!8178 Int) )(forall ((S1_V1_!8187 Int) )(forall ((S1_V1_!8193 Int) )(forall ((S1_V3_!8172 Int) )(forall ((S1_V3_!8179 Int) )(forall ((S1_V3_!8188 Int) )(forall ((S1_V3_!8194 Int) )(forall ((S1_V2_!8173 Int) )(forall ((S1_V2_!8180 Int) )(forall ((S1_V2_!8189 Int) )(forall ((S1_V2_!8195 Int) )(forall ((E1_!8168 Int) )(forall ((E1_!8184 Int) )(forall ((E1_!8186 Int) )(forall ((S1_V5_!8174 Int) )(forall ((S1_V5_!8181 Int) )(forall ((S1_V5_!8190 Int) )(forall ((S1_V5_!8196 Int) )(forall ((E2_!8169 Int) )(forall ((E2_!8170 Int) )(forall ((E2_!8177 Int) )(forall ((E2_!8185 Int) )(forall ((S1_V4_!8175 Int) )(forall ((S1_V4_!8182 Int) )(forall ((S1_V4_!8191 Int) )(forall ((S1_V4_!8197 Int) )(forall ((S1_V6_!8176 Int) )(forall ((S1_V6_!8183 Int) )(forall ((S1_V6_!8192 Int) )(forall ((S1_V6_!8198 Int) )(let ((?x909 (ite MW_S1_V1 S1_V1_!8187 E1_!8186)))
 (let ((?x4881 (+ 1 ?x909)))
 (let ((?x1033 (ite MW_S1_V1 S1_V1_!8193 ?x4881)))
 (let ((?x954 (ite MW_S1_V1 S1_V1_!8171 E1_!8168)))
 (let ((?x4678 (+ 1 ?x954)))
 (let ((?x4823 (ite MW_S1_V1 S1_V1_!8178 ?x4678)))
 (let (($x5507 (and (= ?x4823 ?x1033) (= (ite MW_S1_V3 S1_V3_!8179 E2_!8177) (ite MW_S1_V3 S1_V3_!8194 E2_!8185)) (= (ite MW_S1_V2 S1_V2_!8180 V2_0) (ite MW_S1_V2 S1_V2_!8195 V2_0)) (= (ite MW_S1_V5 S1_V5_!8181 V5_0) (ite MW_S1_V5 S1_V5_!8196 V5_0)) (= (ite MW_S1_V4 S1_V4_!8182 V4_0) (ite MW_S1_V4 S1_V4_!8197 V4_0)) (= (ite MW_S1_V6 S1_V6_!8183 V6_0) (ite MW_S1_V6 S1_V6_!8198 V6_0)))))
 (let (($x2393 (and (not (<= V4_0 E2_!8169)) (not (<= V2_0 E1_!8168)) (not (<= V4_0 E2_!8170)) (>= (ite MW_S1_V3 S1_V3_!8172 E2_!8170) (+ (- 1) (ite MW_S1_V4 S1_V4_!8175 V4_0))) (not (<= (ite MW_S1_V2 S1_V2_!8173 V2_0) ?x4678)) (not (<= (ite MW_S1_V4 S1_V4_!8175 V4_0) E2_!8177)) (>= (ite MW_S1_V3 S1_V3_!8179 E2_!8177) (+ (- 1) (ite MW_S1_V4 S1_V4_!8182 V4_0))) (>= ?x4823 (+ (- 1) (ite MW_S1_V2 S1_V2_!8180 V2_0))) (not (<= V2_0 E1_!8184)) (not (<= V4_0 E2_!8185)) (not (<= V2_0 E1_!8186)) (not (<= (ite MW_S1_V2 S1_V2_!8189 V2_0) ?x4881)) (>= ?x1033 (+ (- 1) (ite MW_S1_V2 S1_V2_!8195 V2_0))) (>= (ite MW_S1_V3 S1_V3_!8194 E2_!8185) (+ (- 1) (ite MW_S1_V4 S1_V4_!8197 V4_0))))))
 (let (($x1356 (= S1_V6_!8198 S1_V6_!8192)))
 (let (($x2360 (not R_S1_V6)))
 (let (($x2397 (or $x2360 (= (ite MW_S1_V6 S1_V6_!8192 V6_0) V6_0))))
 (let (($x844 (not R_S1_V4)))
 (let (($x1761 (or $x844 (= (ite MW_S1_V4 S1_V4_!8191 V4_0) V4_0))))
 (let (($x744 (not R_S1_V5)))
 (let (($x4639 (or $x744 (= (ite MW_S1_V5 S1_V5_!8190 V5_0) V5_0))))
 (let (($x267 (not R_S1_V2)))
 (let (($x1116 (or $x267 (= (ite MW_S1_V2 S1_V2_!8189 V2_0) V2_0))))
 (let (($x249 (and (or (not R_S1_V1) (= ?x909 (+ (- 1) E1_!8186))) (or (not R_S1_V3) (= (ite MW_S1_V3 S1_V3_!8188 E2_!8185) E2_!8185)) $x1116 $x4639 $x1761 $x2397)))
 (let (($x611 (= S1_V6_!8198 S1_V6_!8183)))
 (let (($x1113 (and (or (not R_S1_V1) (= ?x909 ?x954)) (or (not R_S1_V3) (= (ite MW_S1_V3 S1_V3_!8188 E2_!8185) E2_!8177)) (or $x267 (= (ite MW_S1_V2 S1_V2_!8189 V2_0) (ite MW_S1_V2 S1_V2_!8173 V2_0))) (or $x744 (= (ite MW_S1_V5 S1_V5_!8190 V5_0) (ite MW_S1_V5 S1_V5_!8174 V5_0))) (or $x844 (= (ite MW_S1_V4 S1_V4_!8191 V4_0) (ite MW_S1_V4 S1_V4_!8175 V4_0))) (or $x2360 (= (ite MW_S1_V6 S1_V6_!8192 V6_0) (ite MW_S1_V6 S1_V6_!8176 V6_0))))))
 (let (($x5174 (not $x1113)))
 (let (($x2878 (and (or (not R_S1_V1) (= ?x909 (+ (- 1) E1_!8168))) (or (not R_S1_V3) (= (ite MW_S1_V3 S1_V3_!8188 E2_!8185) E2_!8170)) $x1116 $x4639 $x1761 $x2397)))
 (let (($x2880 (not $x2878)))
 (let ((?x4015 (ite MW_S1_V6 S1_V6_!8176 V6_0)))
 (let (($x2048 (= V6_0 ?x4015)))
 (let (($x291 (or $x2360 $x2048)))
 (let ((?x3511 (ite MW_S1_V4 S1_V4_!8175 V4_0)))
 (let (($x2168 (= V4_0 ?x3511)))
 (let (($x3172 (or $x844 $x2168)))
 (let (($x2278 (or $x744 (= V5_0 (ite MW_S1_V5 S1_V5_!8174 V5_0)))))
 (let ((?x454 (ite MW_S1_V2 S1_V2_!8173 V2_0)))
 (let (($x6016 (= V2_0 ?x454)))
 (let (($x2701 (or $x267 $x6016)))
 (let (($x2090 (and (or (not R_S1_V1) (= E1_!8186 ?x4678)) (or (not R_S1_V3) (= E2_!8185 E2_!8177)) $x2701 $x2278 $x3172 $x291)))
 (let (($x4594 (not $x2090)))
 (let (($x4825 (and (or (not R_S1_V1) (= E1_!8186 E1_!8168)) (or (not R_S1_V3) (= E2_!8185 E2_!8170)))))
 (let (($x3189 (not $x4825)))
 (let (($x5047 (and (or (not R_S1_V1) (= E1_!8168 ?x4678)) (or (not R_S1_V3) (= E2_!8170 E2_!8177)) $x2701 $x2278 $x3172 $x291)))
 (let (($x6031 (not $x5047)))
 (let (($x1975 (or $x2360 (= V6_0 (ite MW_S1_V6 S1_V6_!8192 V6_0)))))
 (let (($x4196 (or $x844 (= V4_0 (ite MW_S1_V4 S1_V4_!8191 V4_0)))))
 (let (($x2349 (or $x744 (= V5_0 (ite MW_S1_V5 S1_V5_!8190 V5_0)))))
 (let (($x2990 (or $x267 (= V2_0 (ite MW_S1_V2 S1_V2_!8189 V2_0)))))
 (let (($x2699 (and (or (not R_S1_V1) (= E1_!8186 ?x4881)) (or (not R_S1_V3) (= E2_!8185 (ite MW_S1_V3 S1_V3_!8188 E2_!8185))) $x2990 $x2349 $x4196 $x1975)))
 (let (($x3390 (not $x2699)))
 (let (($x1005 (and (or (not R_S1_V1) (= E1_!8168 ?x4881)) (or (not R_S1_V3) (= E2_!8170 (ite MW_S1_V3 S1_V3_!8188 E2_!8185))) $x2990 $x2349 $x4196 $x1975)))
 (let (($x2593 (not $x1005)))
 (let (($x1122 (and (or (not R_S1_V1) (= E1_!8168 E1_!8186)) (or (not R_S1_V3) (= E2_!8170 E2_!8185)))))
 (let (($x4997 (not $x1122)))
 (let (($x1152 (= E2_!8185 E2_!8177)))
 (let (($x1770 (and (or (not R_E2_V2) $x6016) (or (not R_E2_V4) $x2168) (or (not R_E2_V6) $x2048))))
 (let (($x1730 (= E2_!8185 E2_!8170)))
 (let (($x2276 (= E2_!8177 E2_!8170)))
 (let (($x2571 (and (or (not R_E2_V2) (= ?x454 V2_0)) (or (not R_E2_V4) (= ?x3511 V4_0)) (or (not R_E2_V6) (= ?x4015 V6_0)))))
 (let (($x3480 (not $x2571)))
 (let (($x5135 (= E1_!8186 E1_!8168)))
 (let (($x4924 (and (or (not R_S1_V1) (= ?x954 ?x909)) (or (not R_S1_V3) (= E2_!8177 (ite MW_S1_V3 S1_V3_!8188 E2_!8185))) (or $x267 (= ?x454 (ite MW_S1_V2 S1_V2_!8189 V2_0))) (or $x744 (= (ite MW_S1_V5 S1_V5_!8174 V5_0) (ite MW_S1_V5 S1_V5_!8190 V5_0))) (or $x844 (= ?x3511 (ite MW_S1_V4 S1_V4_!8191 V4_0))) (or $x2360 (= ?x4015 (ite MW_S1_V6 S1_V6_!8192 V6_0))))))
 (let (($x3434 (not $x4924)))
 (let (($x60 (= ?x4015 V6_0)))
 (let (($x5285 (or $x2360 $x60)))
 (let (($x1596 (= ?x3511 V4_0)))
 (let (($x3984 (or $x844 $x1596)))
 (let (($x767 (or $x744 (= (ite MW_S1_V5 S1_V5_!8174 V5_0) V5_0))))
 (let (($x2801 (= ?x454 V2_0)))
 (let (($x5922 (or $x267 $x2801)))
 (let (($x5850 (and (or (not R_S1_V1) (= ?x954 (+ (- 1) E1_!8186))) (or (not R_S1_V3) (= E2_!8177 E2_!8185)) $x5922 $x767 $x3984 $x5285)))
 (let (($x141 (not $x5850)))
 (let (($x1206 (and (or (not R_S1_V1) (= ?x954 (+ (- 1) E1_!8168))) (or (not R_S1_V3) $x2276) $x5922 $x767 $x3984 $x5285)))
 (let (($x2251 (and (or $x6031 (= S1_V1_!8171 S1_V1_!8178)) (or $x4997 (= S1_V1_!8171 S1_V1_!8187)) (or $x2593 (= S1_V1_!8171 S1_V1_!8193)) (or $x141 (= S1_V1_!8178 S1_V1_!8187)) (or $x3434 (= S1_V1_!8178 S1_V1_!8193)) (or $x3390 (= S1_V1_!8187 S1_V1_!8193)) (or (not $x1206) (= S1_V3_!8179 S1_V3_!8172)) (or $x141 (= S1_V3_!8179 S1_V3_!8188)) (or $x3434 (= S1_V3_!8179 S1_V3_!8194)) (or $x3189 (= S1_V3_!8188 S1_V3_!8172)) (or $x3390 (= S1_V3_!8188 S1_V3_!8194)) (or $x2880 (= S1_V3_!8194 S1_V3_!8172)) (or $x6031 (= S1_V2_!8173 S1_V2_!8180)) (or $x4997 (= S1_V2_!8173 S1_V2_!8189)) (or $x2593 (= S1_V2_!8173 S1_V2_!8195)) (or $x4594 (= S1_V2_!8189 S1_V2_!8180)) (or $x3390 (= S1_V2_!8189 S1_V2_!8195)) (or $x5174 (= S1_V2_!8195 S1_V2_!8180)) (= E1_!8184 E1_!8168) (= E1_!8184 E1_!8186) $x5135 (or $x6031 (= S1_V5_!8174 S1_V5_!8181)) (or $x4997 (= S1_V5_!8174 S1_V5_!8190)) (or $x2593 (= S1_V5_!8174 S1_V5_!8196)) (or $x4594 (= S1_V5_!8190 S1_V5_!8181)) (or $x3390 (= S1_V5_!8190 S1_V5_!8196)) (or $x5174 (= S1_V5_!8196 S1_V5_!8181)) (= E2_!8170 E2_!8169) (or $x3480 (= E2_!8177 E2_!8169)) (or $x3480 $x2276) (= E2_!8185 E2_!8169) $x1730 (or (not $x1770) $x1152) (or $x6031 (= S1_V4_!8175 S1_V4_!8182)) (or $x4997 (= S1_V4_!8175 S1_V4_!8191)) (or $x2593 (= S1_V4_!8175 S1_V4_!8197)) (or $x4594 (= S1_V4_!8191 S1_V4_!8182)) (or $x3390 (= S1_V4_!8191 S1_V4_!8197)) (or $x5174 (= S1_V4_!8197 S1_V4_!8182)) (or $x6031 (= S1_V6_!8176 S1_V6_!8183)) (or $x3189 (= S1_V6_!8192 S1_V6_!8176)) (or $x4594 (= S1_V6_!8192 S1_V6_!8183)) (or $x2880 (= S1_V6_!8198 S1_V6_!8176)) (or $x5174 $x611) (or (not $x249) $x1356) (or (not MW_S1_V1) W_S1_V1) (or (not MW_S1_V3) W_S1_V3) (not MW_S1_V2) (not MW_S1_V4) (or (not MW_S1_V6) W_S1_V6))))
 (or (not $x2251) (not $x2393) $x5507)))))))))))))))))))))))))))))))))))))))))))))))))))))))))))))))))))))))
 )
 )
 )
 )
 )
 )
 )
 )
 )
 )
 )
 )
 )
 )
 )
 )
 )
 )
 )
 )
 )
 )
 )
 )
 )
 )
 )
 )
 )
 )
 )
 )
 )
 )
 )
 )
 )
 )
 )
 )
 ))
 (let (($x625 (not R_E1_V5)))
 (let (($x1769 (and W_S1_V6 R_S1_V6)))
 (let (($x5872 (and W_S1_V3 R_S1_V3)))
 (let (($x2040 (and W_S1_V1 R_S1_V1)))
 (let (($x1963 (= DISJ_W_S1_R_S1 (not (or $x2040 $x5872 R_S1_V5 $x1769)))))
 (let (($x95 (not R_E2_V5)))
 (let (($x740 (or DISJ_W_S1_R_S1 (not W_S1_V1))))
 (let (($x5060 (not W_S1_V4)))
 (let (($x34 (not W_S1_V2)))
 (let (($x3283 (not R_E1_V3)))
 (let (($x1652 (not R_E1_V1)))
 (let (($x2788 (not R_E2_V3)))
 (let (($x4020 (not R_E2_V1)))
 (and DISJ_W_S1_R_E2 DISJ_W_S1_R_E1 $x4020 $x2788 $x1652 $x3283 $x34 $x5060 $x740 W_S1_V5 $x95 $x1963 $x625 $x5172 $x4753 $x2773))))))))))))))))))
(check-sat)
